23 23
19
3 3   18 3 
4 3   6 9 
3 5   18 11
3 6   16 6 
7 3   12 20
3 8   4 4 
9 3   9 0 
3 10  0 2 
11 3   8 0 
12 3   7 3 
14 3   5 16
3 20  20 3 
4 3   10 8 
4 4   19 16
4 6   0 11
4 10  16 6 
11 4   0 19
12 4   4 12
6 3   10 6 
